(declare-fun var0 () String)
(assert (str.in.re var0 (re.++ (re.union (re.union (str.to.re "b") (str.to.re "cc")) (re.* (str.to.re "dd"))) (re.++ (re.+ (re.* (str.to.re "aa"))) (re.++ (re.* (re.* (str.to.re "99"))) (re.++ (re.+ (re.* (str.to.re "88"))) (re.++ (re.+ (re.* (str.to.re "7"))) (re.++ (re.union (re.+ (str.to.re "5")) (re.+ (str.to.re "666"))) (re.++ (re.* (re.* (str.to.re "444"))) (re.++ (re.union (re.+ (str.to.re "1")) (re.union (str.to.re "2") (str.to.re "333"))) (re.+ (re.* (str.to.re "0")))))))))))))
(check-sat)